problem_generation/data/GISP/train/er_n=60_m=1070_p=0.60_SET2_setparam=100.00_alpha=0.50_269.lp
maximize
OBJ:100x0 + 100x1 + 100x2 + 100x3 + 100x4 + 100x5 + 100x6 + 100x7 + 100x8 + 100x9 + 100x10 + 100x11 + 100x12 + 100x13 + 100x14 + 100x15 + 100x16 + 100x17 + 100x18 + 100x19 + 100x20 + 100x21 + 100x22 + 100x23 + 100x24 + 100x25 + 100x26 + 100x27 + 100x28 + 100x29 + 100x30 + 100x31 + 100x32 + 100x33 + 100x34 + 100x35 + 100x36 + 100x37 + 100x38 + 100x39 + 100x40 + 100x41 + 100x42 + 100x43 + 100x44 + 100x45 + 100x46 + 100x47 + 100x48 + 100x49 + 100x50 + 100x51 + 100x52 + 100x53 + 100x54 + 100x55 + 100x56 + 100x57 + 100x58 + 100x59 - y55_57 - y36_53 - y18_35 - y18_44 - y8_9 - y40_41 - y6_48 - y29_59 - y22_28 - y14_24 - y3_33 - y3_42 - y14_42 - y15_16 - y36_48 - y36_57 - y7_30 - y40_45 - y33_42 - y2_36 - y22_23 - y43_55 - y22_32 - y16_56 - y28_39 - y5_46 - y9_53 - y6_29 - y29_31 - y21_27 - y6_38 - y29_40 - y40_49 - y21_45 - y10_17 - y25_42 - y3_5 - y32_41 - y3_14 - y22_27 - y13_46 - y24_46 - y3_23 - y32_59 - y35_46 - y1_53 - y17_25 - y28_34 - y7_11 - y17_43 - y36_56 - y5_50 - y17_52 - y5_59 - y9_57 - y50_58 - y29_35 - y40_44 - y21_40 - y39_57 - y13_32 - y43_45 - y51_58 - y35_41 - y24_50 - y35_50 - y1_57 - y24_59 - y35_59 - y17_20 - y28_29 - y9_25 - y9_34 - y17_56 - y50_53 - y6_28 - y29_30 - y2_3 - y20_39 - y2_12 - y31_48 - y31_57 - y4_58 - y35_36 - y43_49 - y16_32 - y1_43 - y13_45 - y35_45 - y43_58 - y28_33 - y9_47 - y50_57 - y8_51 - y42_53 - y11_56 - y20_34 - y39_47 - y2_16 - y31_52 - y23_48 - y4_44 - y13_22 - y16_18 - y1_29 - y13_31 - y24_31 - y43_53 - y1_47 - y24_49 - y35_49 - y1_56 - y16_54 - y5_17 - y9_15 - y5_26 - y5_35 - y17_37 - y27_41 - y27_50 - y42_48 - y8_55 - y0_51 - y12_25 - y1_15 - y24_26 - y34_58 - y1_33 - y13_44 - y24_44 - y16_49 - y46_59 - y9_19 - y26_53 - y7_58 - y27_36 - y6_13 - y8_41 - y30_41 - y27_54 - y50_56 - y8_50 - y19_50 - y30_50 - y0_46 - y42_52 - y20_24 - y0_55 - y39_46 - y12_29 - y31_51 - y4_34 - y12_47 - y1_10 - y4_43 - y53_57 - y4_52 - y34_53 - y1_28 - y1_46 - y5_16 - y46_54 - y9_14 - y15_48 - y26_48 - y49_50 - y15_57 - y38_59 - y49_59 - y7_53 - y8_27 - y19_27 - y8_36 - y19_36 - y30_36 - y8_45 - y19_45 - y8_54 - y20_28 - y23_33 - y12_42 - y23_42 - y1_14 - y4_47 - y34_48 - y16_21 - y22_55 - y1_32 - y16_30 - y26_34 - y5_11 - y46_49 - y15_52 - y49_54 - y18_48 - y8_22 - y0_18 - y11_18 - y19_31 - y27_53 - y19_49 - y41_46 - y12_19 - y33_51 - y4_24 - y25_56 - y1_9 - y1_18 - y37_39 - y22_50 - y45_52 - y14_55 - y18_25 - y15_38 - y18_34 - y38_49 - y15_56 - y26_56 - y7_52 - y18_52 - y27_30 - y8_26 - y19_26 - y27_39 - y19_35 - y30_35 - y0_31 - y0_40 - y52_59 - y10_53 - y33_55 - y2_58 - y22_36 - y22_45 - y34_47 - y45_47 - y14_41 - y22_54 - y34_56 - y3_50 - y37_52 - y3_59 - y18_20 - y18_38 - y15_51 - y7_47 - y8_12 - y0_8 - y7_56 - y19_21 - y29_53 - y0_26 - y11_35 - y33_41 - y41_54 - y25_37 - y52_54 - y10_48 - y3_27 - y14_27 - y34_42 - y3_36 - y22_58 - y3_54 - y15_19 - y15_28 - y26_37 - y7_33 - y7_42 - y48_52 - y19_25 - y21_44 - y10_34 - y33_36 - y44_54 - y2_48 - y22_26 - y14_22 - y14_31 - y15_23 - y47_55 - y17_51 - y28_51 - y18_28 - y7_37 - y29_43 - y48_56 - y21_39 - y6_50 - y11_16 - y40_52 - y33_40 - y44_49 - y2_43 - y32_53 - y13_58 - y14_44 - y36_41 - y15_18 - y47_50 - y7_23 - y6_36 - y48_51 - y21_34 - y6_45 - y29_47 - y6_54 - y21_52 - y10_24 - y2_20 - y54_58 - y10_33 - y33_35 - y25_40 - y51_52 - y2_47 - y22_25 - y32_57 - y35_53 - y16_58 - y17_41 - y47_54 - y17_59 - y9_55 - y6_31 - y6_40 - y29_42 - y21_47 - y2_6 - y39_55 - y2_15 - y2_42 - y32_43 - y13_39 - y24_39 - y32_52 - y3_25 - y14_25 - y13_57 - y35_57 - y36_40 - y9_23 - y36_49 - y47_49 - y17_45 - y6_8 - y28_45 - y36_58 - y5_52 - y17_54 - y6_26 - y9_59 - y39_50 - y2_10 - y2_28 - y2_37 - y13_43 - y35_43 - y13_52 - y35_52 - y16_48 - y17_22 - y9_18 - y36_44 - y28_49 - y5_56 - y19_58 - y12_46 - y2_23 - y4_42 - y24_29 - y43_51 - y24_47 - y13_56 - y16_52 - y38_58 - y9_31 - y28_44 - y9_40 - y6_16 - y42_46 - y21_23 - y50_59 - y19_53 - y39_40 - y23_32 - y31_45 - y12_41 - y23_41 - y54_56 - y4_37 - y12_50 - y13_15 - y4_55 - y13_33 - y24_42 - y35_42 - y1_49 - y24_51 - y5_10 - y1_58 - y46_48 - y9_35 - y6_11 - y19_39 - y50_54 - y19_57 - y30_57 - y12_27 - y20_40 - y12_36 - y23_45 - y13_19 - y53_55 - y4_50 - y16_33 - y16_42 - y5_14 - y5_32 - y8_25 - y27_38 - y8_34 - y19_34 - y30_34 - y19_43 - y8_52 - y12_13 - y20_26 - y0_57 - y31_35 - y20_44 - y4_27 - y31_44 - y1_3 - y4_36 - y13_14 - y45_46 - y4_54 - y34_55 - y37_51 - y3_58 - y38_43 - y9_16 - y26_50 - y49_52 - y26_59 - y18_55 - y8_20 - y27_33 - y8_29 - y19_29 - y8_47 - y30_47 - y8_56 - y41_53 - y20_30 - y12_26 - y31_39 - y4_22 - y4_40 - y34_41 - y22_48 - y45_50 - y34_59 - y56_59 - y14_53 - y26_27 - y26_45 - y15_54 - y26_54 - y7_50 - y7_59 - y18_59 - y0_20 - y11_20 - y27_46 - y11_29 - y8_42 - y19_42 - y0_38 - y11_38 - y0_47 - y11_47 - y20_25 - y4_17 - y44_53 - y4_26 - y22_34 - y53_58 - y37_41 - y22_52 - y34_54 - y37_50 - y26_31 - y18_36 - y18_45 - y15_58 - y0_6 - y7_54 - y11_15 - y19_28 - y0_24 - y8_37 - y21_56 - y0_42 - y41_43 - y33_39 - y41_52 - y4_12 - y44_57 - y22_38 - y22_47 - y45_49 - y56_58 - y15_44 - y26_44 - y7_40 - y0_1 - y7_49 - y18_49 - y0_10 - y29_46 - y48_59 - y0_19 - y30_32 - y11_28 - y41_47 - y10_41 - y41_56 - y25_57 - y14_20 - y22_51 - y14_56
 Subject to
C1: x0+x1-y0_1 <=1 
C2: x0+x6-y0_6 <=1 
C3: x0+x7 <=1 
C4: x0+x8-y0_8 <=1 
C5: x0+x9 <=1 
C6: x0+x10-y0_10 <=1 
C7: x0+x13 <=1 
C8: x0+x14 <=1 
C9: x0+x15 <=1 
C10: x0+x16 <=1 
C11: x0+x18-y0_18 <=1 
C12: x0+x19-y0_19 <=1 
C13: x0+x20-y0_20 <=1 
C14: x0+x23 <=1 
C15: x0+x24-y0_24 <=1 
C16: x0+x26-y0_26 <=1 
C17: x0+x27 <=1 
C18: x0+x30 <=1 
C19: x0+x31-y0_31 <=1 
C20: x0+x33 <=1 
C21: x0+x38-y0_38 <=1 
C22: x0+x40-y0_40 <=1 
C23: x0+x41 <=1 
C24: x0+x42-y0_42 <=1 
C25: x0+x46-y0_46 <=1 
C26: x0+x47-y0_47 <=1 
C27: x0+x51-y0_51 <=1 
C28: x0+x52 <=1 
C29: x0+x53 <=1 
C30: x0+x55-y0_55 <=1 
C31: x0+x57-y0_57 <=1 
C32: x0+x58 <=1 
C33: x1+x3-y1_3 <=1 
C34: x1+x4 <=1 
C35: x1+x6 <=1 
C36: x1+x7 <=1 
C37: x1+x8 <=1 
C38: x1+x9-y1_9 <=1 
C39: x1+x10-y1_10 <=1 
C40: x1+x11 <=1 
C41: x1+x14-y1_14 <=1 
C42: x1+x15-y1_15 <=1 
C43: x1+x18-y1_18 <=1 
C44: x1+x19 <=1 
C45: x1+x20 <=1 
C46: x1+x23 <=1 
C47: x1+x25 <=1 
C48: x1+x28-y1_28 <=1 
C49: x1+x29-y1_29 <=1 
C50: x1+x31 <=1 
C51: x1+x32-y1_32 <=1 
C52: x1+x33-y1_33 <=1 
C53: x1+x35 <=1 
C54: x1+x36 <=1 
C55: x1+x39 <=1 
C56: x1+x40 <=1 
C57: x1+x43-y1_43 <=1 
C58: x1+x45 <=1 
C59: x1+x46-y1_46 <=1 
C60: x1+x47-y1_47 <=1 
C61: x1+x48 <=1 
C62: x1+x49-y1_49 <=1 
C63: x1+x50 <=1 
C64: x1+x52 <=1 
C65: x1+x53-y1_53 <=1 
C66: x1+x56-y1_56 <=1 
C67: x1+x57-y1_57 <=1 
C68: x1+x58-y1_58 <=1 
C69: x1+x59 <=1 
C70: x2+x3-y2_3 <=1 
C71: x2+x5 <=1 
C72: x2+x6-y2_6 <=1 
C73: x2+x10-y2_10 <=1 
C74: x2+x12-y2_12 <=1 
C75: x2+x15-y2_15 <=1 
C76: x2+x16-y2_16 <=1 
C77: x2+x18 <=1 
C78: x2+x20-y2_20 <=1 
C79: x2+x22 <=1 
C80: x2+x23-y2_23 <=1 
C81: x2+x24 <=1 
C82: x2+x26 <=1 
C83: x2+x28-y2_28 <=1 
C84: x2+x29 <=1 
C85: x2+x30 <=1 
C86: x2+x32 <=1 
C87: x2+x33 <=1 
C88: x2+x35 <=1 
C89: x2+x36-y2_36 <=1 
C90: x2+x37-y2_37 <=1 
C91: x2+x38 <=1 
C92: x2+x41 <=1 
C93: x2+x42-y2_42 <=1 
C94: x2+x43-y2_43 <=1 
C95: x2+x45 <=1 
C96: x2+x47-y2_47 <=1 
C97: x2+x48-y2_48 <=1 
C98: x2+x49 <=1 
C99: x2+x50 <=1 
C100: x2+x56 <=1 
C101: x2+x58-y2_58 <=1 
C102: x3+x5-y3_5 <=1 
C103: x3+x8 <=1 
C104: x3+x9 <=1 
C105: x3+x10 <=1 
C106: x3+x14-y3_14 <=1 
C107: x3+x16 <=1 
C108: x3+x18 <=1 
C109: x3+x19 <=1 
C110: x3+x20 <=1 
C111: x3+x22 <=1 
C112: x3+x23-y3_23 <=1 
C113: x3+x24 <=1 
C114: x3+x25-y3_25 <=1 
C115: x3+x27-y3_27 <=1 
C116: x3+x33-y3_33 <=1 
C117: x3+x34 <=1 
C118: x3+x35 <=1 
C119: x3+x36-y3_36 <=1 
C120: x3+x39 <=1 
C121: x3+x40 <=1 
C122: x3+x42-y3_42 <=1 
C123: x3+x46 <=1 
C124: x3+x49 <=1 
C125: x3+x50-y3_50 <=1 
C126: x3+x52 <=1 
C127: x3+x54-y3_54 <=1 
C128: x3+x57 <=1 
C129: x3+x58-y3_58 <=1 
C130: x3+x59-y3_59 <=1 
C131: x4+x6 <=1 
C132: x4+x7 <=1 
C133: x4+x12-y4_12 <=1 
C134: x4+x17-y4_17 <=1 
C135: x4+x18 <=1 
C136: x4+x20 <=1 
C137: x4+x22-y4_22 <=1 
C138: x4+x24-y4_24 <=1 
C139: x4+x26-y4_26 <=1 
C140: x4+x27-y4_27 <=1 
C141: x4+x28 <=1 
C142: x4+x29 <=1 
C143: x4+x32 <=1 
C144: x4+x34-y4_34 <=1 
C145: x4+x35 <=1 
C146: x4+x36-y4_36 <=1 
C147: x4+x37-y4_37 <=1 
C148: x4+x38 <=1 
C149: x4+x40-y4_40 <=1 
C150: x4+x41 <=1 
C151: x4+x42-y4_42 <=1 
C152: x4+x43-y4_43 <=1 
C153: x4+x44-y4_44 <=1 
C154: x4+x45 <=1 
C155: x4+x47-y4_47 <=1 
C156: x4+x50-y4_50 <=1 
C157: x4+x51 <=1 
C158: x4+x52-y4_52 <=1 
C159: x4+x54-y4_54 <=1 
C160: x4+x55-y4_55 <=1 
C161: x4+x58-y4_58 <=1 
C162: x5+x9 <=1 
C163: x5+x10-y5_10 <=1 
C164: x5+x11-y5_11 <=1 
C165: x5+x12 <=1 
C166: x5+x14-y5_14 <=1 
C167: x5+x16-y5_16 <=1 
C168: x5+x17-y5_17 <=1 
C169: x5+x18 <=1 
C170: x5+x21 <=1 
C171: x5+x23 <=1 
C172: x5+x25 <=1 
C173: x5+x26-y5_26 <=1 
C174: x5+x27 <=1 
C175: x5+x29 <=1 
C176: x5+x31 <=1 
C177: x5+x32-y5_32 <=1 
C178: x5+x35-y5_35 <=1 
C179: x5+x36 <=1 
C180: x5+x38 <=1 
C181: x5+x40 <=1 
C182: x5+x42 <=1 
C183: x5+x45 <=1 
C184: x5+x46-y5_46 <=1 
C185: x5+x47 <=1 
C186: x5+x50-y5_50 <=1 
C187: x5+x51 <=1 
C188: x5+x52-y5_52 <=1 
C189: x5+x53 <=1 
C190: x5+x54 <=1 
C191: x5+x55 <=1 
C192: x5+x56-y5_56 <=1 
C193: x5+x59-y5_59 <=1 
C194: x6+x8-y6_8 <=1 
C195: x6+x9 <=1 
C196: x6+x10 <=1 
C197: x6+x11-y6_11 <=1 
C198: x6+x13-y6_13 <=1 
C199: x6+x14 <=1 
C200: x6+x15 <=1 
C201: x6+x16-y6_16 <=1 
C202: x6+x19 <=1 
C203: x6+x20 <=1 
C204: x6+x22 <=1 
C205: x6+x23 <=1 
C206: x6+x24 <=1 
C207: x6+x25 <=1 
C208: x6+x26-y6_26 <=1 
C209: x6+x27 <=1 
C210: x6+x28-y6_28 <=1 
C211: x6+x29-y6_29 <=1 
C212: x6+x31-y6_31 <=1 
C213: x6+x33 <=1 
C214: x6+x34 <=1 
C215: x6+x35 <=1 
C216: x6+x36-y6_36 <=1 
C217: x6+x38-y6_38 <=1 
C218: x6+x39 <=1 
C219: x6+x40-y6_40 <=1 
C220: x6+x45-y6_45 <=1 
C221: x6+x46 <=1 
C222: x6+x48-y6_48 <=1 
C223: x6+x49 <=1 
C224: x6+x50-y6_50 <=1 
C225: x6+x52 <=1 
C226: x6+x54-y6_54 <=1 
C227: x6+x55 <=1 
C228: x6+x56 <=1 
C229: x6+x58 <=1 
C230: x6+x59 <=1 
C231: x7+x8 <=1 
C232: x7+x10 <=1 
C233: x7+x11-y7_11 <=1 
C234: x7+x12 <=1 
C235: x7+x14 <=1 
C236: x7+x15 <=1 
C237: x7+x18 <=1 
C238: x7+x19 <=1 
C239: x7+x21 <=1 
C240: x7+x23-y7_23 <=1 
C241: x7+x25 <=1 
C242: x7+x26 <=1 
C243: x7+x28 <=1 
C244: x7+x30-y7_30 <=1 
C245: x7+x32 <=1 
C246: x7+x33-y7_33 <=1 
C247: x7+x35 <=1 
C248: x7+x37-y7_37 <=1 
C249: x7+x40-y7_40 <=1 
C250: x7+x41 <=1 
C251: x7+x42-y7_42 <=1 
C252: x7+x43 <=1 
C253: x7+x44 <=1 
C254: x7+x46 <=1 
C255: x7+x47-y7_47 <=1 
C256: x7+x48 <=1 
C257: x7+x49-y7_49 <=1 
C258: x7+x50-y7_50 <=1 
C259: x7+x52-y7_52 <=1 
C260: x7+x53-y7_53 <=1 
C261: x7+x54-y7_54 <=1 
C262: x7+x55 <=1 
C263: x7+x56-y7_56 <=1 
C264: x7+x58-y7_58 <=1 
C265: x7+x59-y7_59 <=1 
C266: x8+x9-y8_9 <=1 
C267: x8+x11 <=1 
C268: x8+x12-y8_12 <=1 
C269: x8+x13 <=1 
C270: x8+x14 <=1 
C271: x8+x15 <=1 
C272: x8+x17 <=1 
C273: x8+x18 <=1 
C274: x8+x19 <=1 
C275: x8+x20-y8_20 <=1 
C276: x8+x21 <=1 
C277: x8+x22-y8_22 <=1 
C278: x8+x23 <=1 
C279: x8+x25-y8_25 <=1 
C280: x8+x26-y8_26 <=1 
C281: x8+x27-y8_27 <=1 
C282: x8+x28 <=1 
C283: x8+x29-y8_29 <=1 
C284: x8+x34-y8_34 <=1 
C285: x8+x35 <=1 
C286: x8+x36-y8_36 <=1 
C287: x8+x37-y8_37 <=1 
C288: x8+x40 <=1 
C289: x8+x41-y8_41 <=1 
C290: x8+x42-y8_42 <=1 
C291: x8+x44 <=1 
C292: x8+x45-y8_45 <=1 
C293: x8+x47-y8_47 <=1 
C294: x8+x48 <=1 
C295: x8+x50-y8_50 <=1 
C296: x8+x51-y8_51 <=1 
C297: x8+x52-y8_52 <=1 
C298: x8+x54-y8_54 <=1 
C299: x8+x55-y8_55 <=1 
C300: x8+x56-y8_56 <=1 
C301: x8+x58 <=1 
C302: x8+x59 <=1 
C303: x9+x11 <=1 
C304: x9+x14-y9_14 <=1 
C305: x9+x15-y9_15 <=1 
C306: x9+x16-y9_16 <=1 
C307: x9+x17 <=1 
C308: x9+x18-y9_18 <=1 
C309: x9+x19-y9_19 <=1 
C310: x9+x23-y9_23 <=1 
C311: x9+x25-y9_25 <=1 
C312: x9+x27 <=1 
C313: x9+x29 <=1 
C314: x9+x30 <=1 
C315: x9+x31-y9_31 <=1 
C316: x9+x32 <=1 
C317: x9+x33 <=1 
C318: x9+x34-y9_34 <=1 
C319: x9+x35-y9_35 <=1 
C320: x9+x36 <=1 
C321: x9+x39 <=1 
C322: x9+x40-y9_40 <=1 
C323: x9+x41 <=1 
C324: x9+x44 <=1 
C325: x9+x46 <=1 
C326: x9+x47-y9_47 <=1 
C327: x9+x49 <=1 
C328: x9+x52 <=1 
C329: x9+x53-y9_53 <=1 
C330: x9+x55-y9_55 <=1 
C331: x9+x56 <=1 
C332: x9+x57-y9_57 <=1 
C333: x9+x58 <=1 
C334: x9+x59-y9_59 <=1 
C335: x10+x14 <=1 
C336: x10+x17-y10_17 <=1 
C337: x10+x18 <=1 
C338: x10+x20 <=1 
C339: x10+x21 <=1 
C340: x10+x23 <=1 
C341: x10+x24-y10_24 <=1 
C342: x10+x30 <=1 
C343: x10+x31 <=1 
C344: x10+x33-y10_33 <=1 
C345: x10+x34-y10_34 <=1 
C346: x10+x40 <=1 
C347: x10+x41-y10_41 <=1 
C348: x10+x42 <=1 
C349: x10+x44 <=1 
C350: x10+x48-y10_48 <=1 
C351: x10+x53-y10_53 <=1 
C352: x10+x56 <=1 
C353: x11+x12 <=1 
C354: x11+x14 <=1 
C355: x11+x15-y11_15 <=1 
C356: x11+x16-y11_16 <=1 
C357: x11+x18-y11_18 <=1 
C358: x11+x20-y11_20 <=1 
C359: x11+x26 <=1 
C360: x11+x28-y11_28 <=1 
C361: x11+x29-y11_29 <=1 
C362: x11+x33 <=1 
C363: x11+x34 <=1 
C364: x11+x35-y11_35 <=1 
C365: x11+x38-y11_38 <=1 
C366: x11+x39 <=1 
C367: x11+x40 <=1 
C368: x11+x42 <=1 
C369: x11+x45 <=1 
C370: x11+x47-y11_47 <=1 
C371: x11+x48 <=1 
C372: x11+x52 <=1 
C373: x11+x56-y11_56 <=1 
C374: x11+x57 <=1 
C375: x12+x13-y12_13 <=1 
C376: x12+x15 <=1 
C377: x12+x19-y12_19 <=1 
C378: x12+x20 <=1 
C379: x12+x24 <=1 
C380: x12+x25-y12_25 <=1 
C381: x12+x26-y12_26 <=1 
C382: x12+x27-y12_27 <=1 
C383: x12+x29-y12_29 <=1 
C384: x12+x30 <=1 
C385: x12+x31 <=1 
C386: x12+x34 <=1 
C387: x12+x35 <=1 
C388: x12+x36-y12_36 <=1 
C389: x12+x37 <=1 
C390: x12+x40 <=1 
C391: x12+x41-y12_41 <=1 
C392: x12+x42-y12_42 <=1 
C393: x12+x44 <=1 
C394: x12+x46-y12_46 <=1 
C395: x12+x47-y12_47 <=1 
C396: x12+x49 <=1 
C397: x12+x50-y12_50 <=1 
C398: x12+x51 <=1 
C399: x12+x52 <=1 
C400: x12+x53 <=1 
C401: x12+x56 <=1 
C402: x12+x57 <=1 
C403: x13+x14-y13_14 <=1 
C404: x13+x15-y13_15 <=1 
C405: x13+x17 <=1 
C406: x13+x19-y13_19 <=1 
C407: x13+x20 <=1 
C408: x13+x22-y13_22 <=1 
C409: x13+x25 <=1 
C410: x13+x30 <=1 
C411: x13+x31-y13_31 <=1 
C412: x13+x32-y13_32 <=1 
C413: x13+x33-y13_33 <=1 
C414: x13+x36 <=1 
C415: x13+x37 <=1 
C416: x13+x39-y13_39 <=1 
C417: x13+x40 <=1 
C418: x13+x43-y13_43 <=1 
C419: x13+x44-y13_44 <=1 
C420: x13+x45-y13_45 <=1 
C421: x13+x46-y13_46 <=1 
C422: x13+x49 <=1 
C423: x13+x52-y13_52 <=1 
C424: x13+x56-y13_56 <=1 
C425: x13+x57-y13_57 <=1 
C426: x13+x58-y13_58 <=1 
C427: x14+x18 <=1 
C428: x14+x20-y14_20 <=1 
C429: x14+x22-y14_22 <=1 
C430: x14+x24-y14_24 <=1 
C431: x14+x25-y14_25 <=1 
C432: x14+x26 <=1 
C433: x14+x27-y14_27 <=1 
C434: x14+x28 <=1 
C435: x14+x31-y14_31 <=1 
C436: x14+x40 <=1 
C437: x14+x41-y14_41 <=1 
C438: x14+x42-y14_42 <=1 
C439: x14+x44-y14_44 <=1 
C440: x14+x45 <=1 
C441: x14+x46 <=1 
C442: x14+x48 <=1 
C443: x14+x50 <=1 
C444: x14+x51 <=1 
C445: x14+x52 <=1 
C446: x14+x53-y14_53 <=1 
C447: x14+x54 <=1 
C448: x14+x55-y14_55 <=1 
C449: x14+x56-y14_56 <=1 
C450: x14+x57 <=1 
C451: x14+x58 <=1 
C452: x14+x59 <=1 
C453: x15+x16-y15_16 <=1 
C454: x15+x17 <=1 
C455: x15+x18-y15_18 <=1 
C456: x15+x19-y15_19 <=1 
C457: x15+x23-y15_23 <=1 
C458: x15+x28-y15_28 <=1 
C459: x15+x29 <=1 
C460: x15+x31 <=1 
C461: x15+x32 <=1 
C462: x15+x33 <=1 
C463: x15+x34 <=1 
C464: x15+x35 <=1 
C465: x15+x38-y15_38 <=1 
C466: x15+x40 <=1 
C467: x15+x41 <=1 
C468: x15+x44-y15_44 <=1 
C469: x15+x47 <=1 
C470: x15+x48-y15_48 <=1 
C471: x15+x49 <=1 
C472: x15+x50 <=1 
C473: x15+x51-y15_51 <=1 
C474: x15+x52-y15_52 <=1 
C475: x15+x53 <=1 
C476: x15+x54-y15_54 <=1 
C477: x15+x55 <=1 
C478: x15+x56-y15_56 <=1 
C479: x15+x57-y15_57 <=1 
C480: x15+x58-y15_58 <=1 
C481: x16+x18-y16_18 <=1 
C482: x16+x21-y16_21 <=1 
C483: x16+x23 <=1 
C484: x16+x25 <=1 
C485: x16+x27 <=1 
C486: x16+x28 <=1 
C487: x16+x30-y16_30 <=1 
C488: x16+x31 <=1 
C489: x16+x32-y16_32 <=1 
C490: x16+x33-y16_33 <=1 
C491: x16+x36 <=1 
C492: x16+x37 <=1 
C493: x16+x38 <=1 
C494: x16+x42-y16_42 <=1 
C495: x16+x43 <=1 
C496: x16+x45 <=1 
C497: x16+x48-y16_48 <=1 
C498: x16+x49-y16_49 <=1 
C499: x16+x50 <=1 
C500: x16+x51 <=1 
C501: x16+x52-y16_52 <=1 
C502: x16+x54-y16_54 <=1 
C503: x16+x56-y16_56 <=1 
C504: x16+x58-y16_58 <=1 
C505: x16+x59 <=1 
C506: x17+x18 <=1 
C507: x17+x19 <=1 
C508: x17+x20-y17_20 <=1 
C509: x17+x22-y17_22 <=1 
C510: x17+x25-y17_25 <=1 
C511: x17+x26 <=1 
C512: x17+x28 <=1 
C513: x17+x33 <=1 
C514: x17+x36 <=1 
C515: x17+x37-y17_37 <=1 
C516: x17+x39 <=1 
C517: x17+x41-y17_41 <=1 
C518: x17+x43-y17_43 <=1 
C519: x17+x45-y17_45 <=1 
C520: x17+x46 <=1 
C521: x17+x47 <=1 
C522: x17+x48 <=1 
C523: x17+x49 <=1 
C524: x17+x50 <=1 
C525: x17+x51-y17_51 <=1 
C526: x17+x52-y17_52 <=1 
C527: x17+x53 <=1 
C528: x17+x54-y17_54 <=1 
C529: x17+x55 <=1 
C530: x17+x56-y17_56 <=1 
C531: x17+x59-y17_59 <=1 
C532: x18+x20-y18_20 <=1 
C533: x18+x21 <=1 
C534: x18+x24 <=1 
C535: x18+x25-y18_25 <=1 
C536: x18+x28-y18_28 <=1 
C537: x18+x32 <=1 
C538: x18+x34-y18_34 <=1 
C539: x18+x35-y18_35 <=1 
C540: x18+x36-y18_36 <=1 
C541: x18+x38-y18_38 <=1 
C542: x18+x41 <=1 
C543: x18+x42 <=1 
C544: x18+x43 <=1 
C545: x18+x44-y18_44 <=1 
C546: x18+x45-y18_45 <=1 
C547: x18+x48-y18_48 <=1 
C548: x18+x49-y18_49 <=1 
C549: x18+x50 <=1 
C550: x18+x52-y18_52 <=1 
C551: x18+x55-y18_55 <=1 
C552: x18+x56 <=1 
C553: x18+x57 <=1 
C554: x18+x59-y18_59 <=1 
C555: x19+x21-y19_21 <=1 
C556: x19+x23 <=1 
C557: x19+x25-y19_25 <=1 
C558: x19+x26-y19_26 <=1 
C559: x19+x27-y19_27 <=1 
C560: x19+x28-y19_28 <=1 
C561: x19+x29-y19_29 <=1 
C562: x19+x31-y19_31 <=1 
C563: x19+x33 <=1 
C564: x19+x34-y19_34 <=1 
C565: x19+x35-y19_35 <=1 
C566: x19+x36-y19_36 <=1 
C567: x19+x37 <=1 
C568: x19+x39-y19_39 <=1 
C569: x19+x42-y19_42 <=1 
C570: x19+x43-y19_43 <=1 
C571: x19+x45-y19_45 <=1 
C572: x19+x49-y19_49 <=1 
C573: x19+x50-y19_50 <=1 
C574: x19+x51 <=1 
C575: x19+x53-y19_53 <=1 
C576: x19+x57-y19_57 <=1 
C577: x19+x58-y19_58 <=1 
C578: x20+x23 <=1 
C579: x20+x24-y20_24 <=1 
C580: x20+x25-y20_25 <=1 
C581: x20+x26-y20_26 <=1 
C582: x20+x27 <=1 
C583: x20+x28-y20_28 <=1 
C584: x20+x29 <=1 
C585: x20+x30-y20_30 <=1 
C586: x20+x31 <=1 
C587: x20+x33 <=1 
C588: x20+x34-y20_34 <=1 
C589: x20+x35 <=1 
C590: x20+x36 <=1 
C591: x20+x38 <=1 
C592: x20+x39-y20_39 <=1 
C593: x20+x40-y20_40 <=1 
C594: x20+x42 <=1 
C595: x20+x44-y20_44 <=1 
C596: x20+x45 <=1 
C597: x20+x54 <=1 
C598: x20+x58 <=1 
C599: x20+x59 <=1 
C600: x21+x22 <=1 
C601: x21+x23-y21_23 <=1 
C602: x21+x24 <=1 
C603: x21+x26 <=1 
C604: x21+x27-y21_27 <=1 
C605: x21+x28 <=1 
C606: x21+x29 <=1 
C607: x21+x30 <=1 
C608: x21+x34-y21_34 <=1 
C609: x21+x35 <=1 
C610: x21+x36 <=1 
C611: x21+x37 <=1 
C612: x21+x39-y21_39 <=1 
C613: x21+x40-y21_40 <=1 
C614: x21+x42 <=1 
C615: x21+x44-y21_44 <=1 
C616: x21+x45-y21_45 <=1 
C617: x21+x46 <=1 
C618: x21+x47-y21_47 <=1 
C619: x21+x51 <=1 
C620: x21+x52-y21_52 <=1 
C621: x21+x54 <=1 
C622: x21+x55 <=1 
C623: x21+x56-y21_56 <=1 
C624: x21+x57 <=1 
C625: x21+x58 <=1 
C626: x21+x59 <=1 
C627: x22+x23-y22_23 <=1 
C628: x22+x24 <=1 
C629: x22+x25-y22_25 <=1 
C630: x22+x26-y22_26 <=1 
C631: x22+x27-y22_27 <=1 
C632: x22+x28-y22_28 <=1 
C633: x22+x29 <=1 
C634: x22+x30 <=1 
C635: x22+x32-y22_32 <=1 
C636: x22+x34-y22_34 <=1 
C637: x22+x36-y22_36 <=1 
C638: x22+x37 <=1 
C639: x22+x38-y22_38 <=1 
C640: x22+x43 <=1 
C641: x22+x44 <=1 
C642: x22+x45-y22_45 <=1 
C643: x22+x47-y22_47 <=1 
C644: x22+x48-y22_48 <=1 
C645: x22+x49 <=1 
C646: x22+x50-y22_50 <=1 
C647: x22+x51-y22_51 <=1 
C648: x22+x52-y22_52 <=1 
C649: x22+x54-y22_54 <=1 
C650: x22+x55-y22_55 <=1 
C651: x22+x56 <=1 
C652: x22+x58-y22_58 <=1 
C653: x23+x24 <=1 
C654: x23+x26 <=1 
C655: x23+x27 <=1 
C656: x23+x28 <=1 
C657: x23+x29 <=1 
C658: x23+x30 <=1 
C659: x23+x31 <=1 
C660: x23+x32-y23_32 <=1 
C661: x23+x33-y23_33 <=1 
C662: x23+x35 <=1 
C663: x23+x38 <=1 
C664: x23+x39 <=1 
C665: x23+x40 <=1 
C666: x23+x41-y23_41 <=1 
C667: x23+x42-y23_42 <=1 
C668: x23+x43 <=1 
C669: x23+x45-y23_45 <=1 
C670: x23+x48-y23_48 <=1 
C671: x23+x49 <=1 
C672: x23+x57 <=1 
C673: x23+x59 <=1 
C674: x24+x26-y24_26 <=1 
C675: x24+x27 <=1 
C676: x24+x29-y24_29 <=1 
C677: x24+x31-y24_31 <=1 
C678: x24+x34 <=1 
C679: x24+x37 <=1 
C680: x24+x38 <=1 
C681: x24+x39-y24_39 <=1 
C682: x24+x41 <=1 
C683: x24+x42-y24_42 <=1 
C684: x24+x44-y24_44 <=1 
C685: x24+x46-y24_46 <=1 
C686: x24+x47-y24_47 <=1 
C687: x24+x48 <=1 
C688: x24+x49-y24_49 <=1 
C689: x24+x50-y24_50 <=1 
C690: x24+x51-y24_51 <=1 
C691: x24+x56 <=1 
C692: x24+x57 <=1 
C693: x24+x58 <=1 
C694: x24+x59-y24_59 <=1 
C695: x25+x27 <=1 
C696: x25+x30 <=1 
C697: x25+x31 <=1 
C698: x25+x32 <=1 
C699: x25+x33 <=1 
C700: x25+x34 <=1 
C701: x25+x35 <=1 
C702: x25+x37-y25_37 <=1 
C703: x25+x39 <=1 
C704: x25+x40-y25_40 <=1 
C705: x25+x41 <=1 
C706: x25+x42-y25_42 <=1 
C707: x25+x44 <=1 
C708: x25+x46 <=1 
C709: x25+x48 <=1 
C710: x25+x51 <=1 
C711: x25+x54 <=1 
C712: x25+x55 <=1 
C713: x25+x56-y25_56 <=1 
C714: x25+x57-y25_57 <=1 
C715: x26+x27-y26_27 <=1 
C716: x26+x30 <=1 
C717: x26+x31-y26_31 <=1 
C718: x26+x34-y26_34 <=1 
C719: x26+x37-y26_37 <=1 
C720: x26+x38 <=1 
C721: x26+x39 <=1 
C722: x26+x41 <=1 
C723: x26+x42 <=1 
C724: x26+x44-y26_44 <=1 
C725: x26+x45-y26_45 <=1 
C726: x26+x47 <=1 
C727: x26+x48-y26_48 <=1 
C728: x26+x50-y26_50 <=1 
C729: x26+x51 <=1 
C730: x26+x52 <=1 
C731: x26+x53-y26_53 <=1 
C732: x26+x54-y26_54 <=1 
C733: x26+x56-y26_56 <=1 
C734: x26+x57 <=1 
C735: x26+x59-y26_59 <=1 
C736: x27+x28 <=1 
C737: x27+x29 <=1 
C738: x27+x30-y27_30 <=1 
C739: x27+x31 <=1 
C740: x27+x32 <=1 
C741: x27+x33-y27_33 <=1 
C742: x27+x35 <=1 
C743: x27+x36-y27_36 <=1 
C744: x27+x38-y27_38 <=1 
C745: x27+x39-y27_39 <=1 
C746: x27+x40 <=1 
C747: x27+x41-y27_41 <=1 
C748: x27+x42 <=1 
C749: x27+x43 <=1 
C750: x27+x44 <=1 
C751: x27+x45 <=1 
C752: x27+x46-y27_46 <=1 
C753: x27+x47 <=1 
C754: x27+x48 <=1 
C755: x27+x50-y27_50 <=1 
C756: x27+x51 <=1 
C757: x27+x53-y27_53 <=1 
C758: x27+x54-y27_54 <=1 
C759: x27+x55 <=1 
C760: x27+x56 <=1 
C761: x27+x58 <=1 
C762: x27+x59 <=1 
C763: x28+x29-y28_29 <=1 
C764: x28+x31 <=1 
C765: x28+x33-y28_33 <=1 
C766: x28+x34-y28_34 <=1 
C767: x28+x35 <=1 
C768: x28+x37 <=1 
C769: x28+x39-y28_39 <=1 
C770: x28+x40 <=1 
C771: x28+x43 <=1 
C772: x28+x44-y28_44 <=1 
C773: x28+x45-y28_45 <=1 
C774: x28+x46 <=1 
C775: x28+x47 <=1 
C776: x28+x49-y28_49 <=1 
C777: x28+x51-y28_51 <=1 
C778: x28+x52 <=1 
C779: x28+x53 <=1 
C780: x28+x54 <=1 
C781: x29+x30-y29_30 <=1 
C782: x29+x31-y29_31 <=1 
C783: x29+x35-y29_35 <=1 
C784: x29+x36 <=1 
C785: x29+x37 <=1 
C786: x29+x38 <=1 
C787: x29+x39 <=1 
C788: x29+x40-y29_40 <=1 
C789: x29+x42-y29_42 <=1 
C790: x29+x43-y29_43 <=1 
C791: x29+x44 <=1 
C792: x29+x46-y29_46 <=1 
C793: x29+x47-y29_47 <=1 
C794: x29+x49 <=1 
C795: x29+x51 <=1 
C796: x29+x53-y29_53 <=1 
C797: x29+x54 <=1 
C798: x29+x56 <=1 
C799: x29+x57 <=1 
C800: x29+x58 <=1 
C801: x29+x59-y29_59 <=1 
C802: x30+x32-y30_32 <=1 
C803: x30+x33 <=1 
C804: x30+x34-y30_34 <=1 
C805: x30+x35-y30_35 <=1 
C806: x30+x36-y30_36 <=1 
C807: x30+x41-y30_41 <=1 
C808: x30+x44 <=1 
C809: x30+x47-y30_47 <=1 
C810: x30+x50-y30_50 <=1 
C811: x30+x52 <=1 
C812: x30+x53 <=1 
C813: x30+x54 <=1 
C814: x30+x56 <=1 
C815: x30+x57-y30_57 <=1 
C816: x30+x59 <=1 
C817: x31+x33 <=1 
C818: x31+x34 <=1 
C819: x31+x35-y31_35 <=1 
C820: x31+x39-y31_39 <=1 
C821: x31+x40 <=1 
C822: x31+x44-y31_44 <=1 
C823: x31+x45-y31_45 <=1 
C824: x31+x47 <=1 
C825: x31+x48-y31_48 <=1 
C826: x31+x50 <=1 
C827: x31+x51-y31_51 <=1 
C828: x31+x52-y31_52 <=1 
C829: x31+x54 <=1 
C830: x31+x56 <=1 
C831: x31+x57-y31_57 <=1 
C832: x31+x58 <=1 
C833: x32+x34 <=1 
C834: x32+x37 <=1 
C835: x32+x38 <=1 
C836: x32+x41-y32_41 <=1 
C837: x32+x42 <=1 
C838: x32+x43-y32_43 <=1 
C839: x32+x44 <=1 
C840: x32+x46 <=1 
C841: x32+x48 <=1 
C842: x32+x51 <=1 
C843: x32+x52-y32_52 <=1 
C844: x32+x53-y32_53 <=1 
C845: x32+x54 <=1 
C846: x32+x57-y32_57 <=1 
C847: x32+x59-y32_59 <=1 
C848: x33+x34 <=1 
C849: x33+x35-y33_35 <=1 
C850: x33+x36-y33_36 <=1 
C851: x33+x38 <=1 
C852: x33+x39-y33_39 <=1 
C853: x33+x40-y33_40 <=1 
C854: x33+x41-y33_41 <=1 
C855: x33+x42-y33_42 <=1 
C856: x33+x45 <=1 
C857: x33+x48 <=1 
C858: x33+x49 <=1 
C859: x33+x51-y33_51 <=1 
C860: x33+x52 <=1 
C861: x33+x54 <=1 
C862: x33+x55-y33_55 <=1 
C863: x33+x58 <=1 
C864: x34+x40 <=1 
C865: x34+x41-y34_41 <=1 
C866: x34+x42-y34_42 <=1 
C867: x34+x44 <=1 
C868: x34+x47-y34_47 <=1 
C869: x34+x48-y34_48 <=1 
C870: x34+x49 <=1 
C871: x34+x51 <=1 
C872: x34+x52 <=1 
C873: x34+x53-y34_53 <=1 
C874: x34+x54-y34_54 <=1 
C875: x34+x55-y34_55 <=1 
C876: x34+x56-y34_56 <=1 
C877: x34+x58-y34_58 <=1 
C878: x34+x59-y34_59 <=1 
C879: x35+x36-y35_36 <=1 
C880: x35+x38 <=1 
C881: x35+x39 <=1 
C882: x35+x41-y35_41 <=1 
C883: x35+x42-y35_42 <=1 
C884: x35+x43-y35_43 <=1 
C885: x35+x45-y35_45 <=1 
C886: x35+x46-y35_46 <=1 
C887: x35+x49-y35_49 <=1 
C888: x35+x50-y35_50 <=1 
C889: x35+x52-y35_52 <=1 
C890: x35+x53-y35_53 <=1 
C891: x35+x55 <=1 
C892: x35+x57-y35_57 <=1 
C893: x35+x58 <=1 
C894: x35+x59-y35_59 <=1 
C895: x36+x37 <=1 
C896: x36+x38 <=1 
C897: x36+x39 <=1 
C898: x36+x40-y36_40 <=1 
C899: x36+x41-y36_41 <=1 
C900: x36+x44-y36_44 <=1 
C901: x36+x45 <=1 
C902: x36+x48-y36_48 <=1 
C903: x36+x49-y36_49 <=1 
C904: x36+x50 <=1 
C905: x36+x52 <=1 
C906: x36+x53-y36_53 <=1 
C907: x36+x54 <=1 
C908: x36+x56-y36_56 <=1 
C909: x36+x57-y36_57 <=1 
C910: x36+x58-y36_58 <=1 
C911: x37+x38 <=1 
C912: x37+x39-y37_39 <=1 
C913: x37+x40 <=1 
C914: x37+x41-y37_41 <=1 
C915: x37+x43 <=1 
C916: x37+x47 <=1 
C917: x37+x49 <=1 
C918: x37+x50-y37_50 <=1 
C919: x37+x51-y37_51 <=1 
C920: x37+x52-y37_52 <=1 
C921: x37+x53 <=1 
C922: x37+x54 <=1 
C923: x37+x55 <=1 
C924: x37+x58 <=1 
C925: x38+x39 <=1 
C926: x38+x40 <=1 
C927: x38+x41 <=1 
C928: x38+x43-y38_43 <=1 
C929: x38+x44 <=1 
C930: x38+x49-y38_49 <=1 
C931: x38+x51 <=1 
C932: x38+x53 <=1 
C933: x38+x54 <=1 
C934: x38+x55 <=1 
C935: x38+x56 <=1 
C936: x38+x58-y38_58 <=1 
C937: x38+x59-y38_59 <=1 
C938: x39+x40-y39_40 <=1 
C939: x39+x42 <=1 
C940: x39+x43 <=1 
C941: x39+x46-y39_46 <=1 
C942: x39+x47-y39_47 <=1 
C943: x39+x48 <=1 
C944: x39+x49 <=1 
C945: x39+x50-y39_50 <=1 
C946: x39+x51 <=1 
C947: x39+x52 <=1 
C948: x39+x53 <=1 
C949: x39+x55-y39_55 <=1 
C950: x39+x57-y39_57 <=1 
C951: x39+x59 <=1 
C952: x40+x41-y40_41 <=1 
C953: x40+x44-y40_44 <=1 
C954: x40+x45-y40_45 <=1 
C955: x40+x48 <=1 
C956: x40+x49-y40_49 <=1 
C957: x40+x52-y40_52 <=1 
C958: x40+x53 <=1 
C959: x40+x55 <=1 
C960: x40+x57 <=1 
C961: x41+x43-y41_43 <=1 
C962: x41+x44 <=1 
C963: x41+x45 <=1 
C964: x41+x46-y41_46 <=1 
C965: x41+x47-y41_47 <=1 
C966: x41+x49 <=1 
C967: x41+x51 <=1 
C968: x41+x52-y41_52 <=1 
C969: x41+x53-y41_53 <=1 
C970: x41+x54-y41_54 <=1 
C971: x41+x56-y41_56 <=1 
C972: x41+x57 <=1 
C973: x42+x43 <=1 
C974: x42+x46-y42_46 <=1 
C975: x42+x48-y42_48 <=1 
C976: x42+x49 <=1 
C977: x42+x52-y42_52 <=1 
C978: x42+x53-y42_53 <=1 
C979: x42+x54 <=1 
C980: x42+x58 <=1 
C981: x42+x59 <=1 
C982: x43+x44 <=1 
C983: x43+x45-y43_45 <=1 
C984: x43+x49-y43_49 <=1 
C985: x43+x51-y43_51 <=1 
C986: x43+x53-y43_53 <=1 
C987: x43+x55-y43_55 <=1 
C988: x43+x56 <=1 
C989: x43+x58-y43_58 <=1 
C990: x43+x59 <=1 
C991: x44+x47 <=1 
C992: x44+x48 <=1 
C993: x44+x49-y44_49 <=1 
C994: x44+x50 <=1 
C995: x44+x51 <=1 
C996: x44+x53-y44_53 <=1 
C997: x44+x54-y44_54 <=1 
C998: x44+x56 <=1 
C999: x44+x57-y44_57 <=1 
C1000: x44+x58 <=1 
C1001: x44+x59 <=1 
C1002: x45+x46-y45_46 <=1 
C1003: x45+x47-y45_47 <=1 
C1004: x45+x48 <=1 
C1005: x45+x49-y45_49 <=1 
C1006: x45+x50-y45_50 <=1 
C1007: x45+x52-y45_52 <=1 
C1008: x45+x53 <=1 
C1009: x45+x54 <=1 
C1010: x45+x57 <=1 
C1011: x46+x48-y46_48 <=1 
C1012: x46+x49-y46_49 <=1 
C1013: x46+x50 <=1 
C1014: x46+x52 <=1 
C1015: x46+x53 <=1 
C1016: x46+x54-y46_54 <=1 
C1017: x46+x56 <=1 
C1018: x46+x59-y46_59 <=1 
C1019: x47+x49-y47_49 <=1 
C1020: x47+x50-y47_50 <=1 
C1021: x47+x52 <=1 
C1022: x47+x54-y47_54 <=1 
C1023: x47+x55-y47_55 <=1 
C1024: x47+x56 <=1 
C1025: x47+x57 <=1 
C1026: x47+x59 <=1 
C1027: x48+x49 <=1 
C1028: x48+x51-y48_51 <=1 
C1029: x48+x52-y48_52 <=1 
C1030: x48+x54 <=1 
C1031: x48+x56-y48_56 <=1 
C1032: x48+x58 <=1 
C1033: x48+x59-y48_59 <=1 
C1034: x49+x50-y49_50 <=1 
C1035: x49+x51 <=1 
C1036: x49+x52-y49_52 <=1 
C1037: x49+x54-y49_54 <=1 
C1038: x49+x57 <=1 
C1039: x49+x58 <=1 
C1040: x49+x59-y49_59 <=1 
C1041: x50+x53-y50_53 <=1 
C1042: x50+x54-y50_54 <=1 
C1043: x50+x55 <=1 
C1044: x50+x56-y50_56 <=1 
C1045: x50+x57-y50_57 <=1 
C1046: x50+x58-y50_58 <=1 
C1047: x50+x59-y50_59 <=1 
C1048: x51+x52-y51_52 <=1 
C1049: x51+x55 <=1 
C1050: x51+x58-y51_58 <=1 
C1051: x52+x53 <=1 
C1052: x52+x54-y52_54 <=1 
C1053: x52+x57 <=1 
C1054: x52+x59-y52_59 <=1 
C1055: x53+x55-y53_55 <=1 
C1056: x53+x56 <=1 
C1057: x53+x57-y53_57 <=1 
C1058: x53+x58-y53_58 <=1 
C1059: x53+x59 <=1 
C1060: x54+x55 <=1 
C1061: x54+x56-y54_56 <=1 
C1062: x54+x57 <=1 
C1063: x54+x58-y54_58 <=1 
C1064: x54+x59 <=1 
C1065: x55+x56 <=1 
C1066: x55+x57-y55_57 <=1 
C1067: x55+x59 <=1 
C1068: x56+x58-y56_58 <=1 
C1069: x56+x59-y56_59 <=1 
C1070: x57+x58 <=1 

binary
x0
x1
x2
x3
x4
x5
x6
x7
x8
x9
x10
x11
x12
x13
x14
x15
x16
x17
x18
x19
x20
x21
x22
x23
x24
x25
x26
x27
x28
x29
x30
x31
x32
x33
x34
x35
x36
x37
x38
x39
x40
x41
x42
x43
x44
x45
x46
x47
x48
x49
x50
x51
x52
x53
x54
x55
x56
x57
x58
x59
