problem_generation/data/GISP/train/er_n=60_m=1070_p=0.60_SET2_setparam=100.00_alpha=0.50_269.sol
objective value:                                 1178
x5                                                  1 	(obj:100)
x10                                                 1 	(obj:100)
x11                                                 1 	(obj:100)
x13                                                 1 	(obj:100)
x19                                                 1 	(obj:100)
x22                                                 1 	(obj:100)
x28                                                 1 	(obj:100)
x32                                                 1 	(obj:100)
x41                                                 1 	(obj:100)
x50                                                 1 	(obj:100)
x58                                                 1 	(obj:100)
x59                                                 1 	(obj:100)
y22_28                                              1 	(obj:-1)
y22_32                                              1 	(obj:-1)
y32_41                                              1 	(obj:-1)
y32_59                                              1 	(obj:-1)
y5_50                                               1 	(obj:-1)
y5_59                                               1 	(obj:-1)
y50_58                                              1 	(obj:-1)
y13_32                                              1 	(obj:-1)
y13_22                                              1 	(obj:-1)
y19_50                                              1 	(obj:-1)
y5_11                                               1 	(obj:-1)
y22_50                                              1 	(obj:-1)
y22_58                                              1 	(obj:-1)
y13_58                                              1 	(obj:-1)
y19_58                                              1 	(obj:-1)
y50_59                                              1 	(obj:-1)
y5_10                                               1 	(obj:-1)
y13_19                                              1 	(obj:-1)
y5_32                                               1 	(obj:-1)
y19_28                                              1 	(obj:-1)
y11_28                                              1 	(obj:-1)
y10_41                                              1 	(obj:-1)
